38
75
52	17
51	7
50	10
49	10
48	15
47	18
46	17
45	15
44	17
43	14
42	11
41	13
40	17
39	17
38	16
37	12
36	13
35	17
34	15
33	10
32	8
31	13
30	9
29	6
28	7
27	17
26	10
25	12
24	14
23	19
22	8
21	16
20	15
19	16
18	16
17	13
16	8
15	12
